
Gurobi 10.0.1 (linux64) logging started Sun Nov 26 15:37:25 2023

Set parameter LogFile to value "ArtificialInstance/ExperimentV2/S3T3K2/AdRo/gurobi1.txt"
Gurobi Optimizer version 10.0.1 build v10.0.1rc0 (linux64)

CPU model: AMD EPYC 7H12 64-Core Processor, instruction set [SSE2|AVX|AVX2]
Thread count: 128 physical cores, 128 logical processors, using up to 32 threads

Academic license 656792 - for non-commercial use only - registered to b.___@student.vu.nl
Optimize a model with 6787 rows, 6733 columns and 25907 nonzeros
Model fingerprint: 0xf082177e
Variable types: 1 continuous, 6732 integer (6732 binary)
Coefficient statistics:
  Matrix range     [1e+00, 4e+01]
  Objective range  [1e+00, 2e+01]
  Bounds range     [1e+00, 1e+00]
  RHS range        [1e+00, 1e+00]
Presolve removed 999 rows and 1033 columns
Presolve time: 0.10s
Presolved: 5788 rows, 5700 columns, 22616 nonzeros
Variable types: 1 continuous, 5699 integer (5699 binary)

Root relaxation: objective 5.507540e+01, 6104 iterations, 0.53 seconds (0.43 work units)

    Nodes    |    Current Node    |     Objective Bounds      |     Work
 Expl Unexpl |  Obj  Depth IntInf | Incumbent    BestBd   Gap | It/Node Time

     0     0   55.07540    0  465          -   55.07540      -     -    0s
H    0     0                     110.3986660   55.07540  50.1%     -    0s
H    0     0                     107.2466520   55.07540  48.6%     -    0s
H    0     0                      56.7099889   55.07540  2.88%     -    0s
     0     0   56.18260    0  447   56.70999   56.18260  0.93%     -    1s
     0     0     cutoff    0        56.70999   56.70999  0.00%     -    1s

Explored 1 nodes (8627 simplex iterations) in 1.16 seconds (0.79 work units)
Thread count was 32 (of 128 available processors)

Solution count 3: 56.71 107.247 110.399 

Optimal solution found (tolerance 1.00e-04)
Best objective 5.670998890202e+01, best bound 5.670998890202e+01, gap 0.0000%
